Read MPS format model from file examples/diet.mps
Reading time = 0.01 seconds
examples/diet.cmpl: 4 rows, 8 columns, 31 nonzeros
Optimize a model with 4 rows, 8 columns and 31 nonzeros
Presolve removed 3 rows and 1 columns
Presolve time: 0.01s
Presolved: 1 rows, 7 columns, 7 nonzeros
Variable types: 0 continuous, 7 integer (0 binary)
Found heuristic solution: objective 121.1000000
Found heuristic solution: objective 108.2400000

Root relaxation: objective 1.010133e+02, 1 iterations, 0.00 seconds

    Nodes    |    Current Node    |     Objective Bounds      |     Work
 Expl Unexpl |  Obj  Depth IntInf | Incumbent    BestBd   Gap | It/Node Time

     0     0  101.01333    0    1  108.24000  101.01333  6.68%     -    0s
H    0     0                     101.7400000  101.01333  0.71%     -    0s
*    0     0               0     101.1400000  101.14000   0.0%     -    0s

Cutting planes:
  Gomory: 1

Explored 0 nodes (3 simplex iterations) in 0.03 seconds
Thread count was 2 (of 2 available processors)

Optimal solution found (tolerance 1.00e-04)
Best objective 1.011400000000e+02, best bound 1.011400000000e+02, gap 0.0%

Gurobi 4.6.1 (mac64) logging started Sun Feb 26 16:50:34 2012


Gurobi 4.6.1 (mac64) logging started Thu Mar  1 10:43:47 2012


Gurobi 4.6.1 (mac64) logging started Thu Mar  1 10:45:14 2012


Gurobi 4.6.1 (mac64) logging started Thu Mar  1 10:46:23 2012


Gurobi 4.6.1 (mac64) logging started Thu Mar  1 10:48:41 2012


Gurobi 4.6.1 (mac64) logging started Thu Mar  1 10:48:53 2012

Read MPS format model from file examples/diet.mps
Reading time = 0.03 seconds
examples/diet.cmpl: 4 rows, 8 columns, 31 nonzeros
Optimize a model with 4 rows, 8 columns and 31 nonzeros
Presolve removed 3 rows and 1 columns
Presolve time: 0.01s
Presolved: 1 rows, 7 columns, 7 nonzeros
Variable types: 0 continuous, 7 integer (0 binary)
Found heuristic solution: objective 121.1000000
Found heuristic solution: objective 108.2400000

Root relaxation: objective 1.010133e+02, 1 iterations, 0.00 seconds

    Nodes    |    Current Node    |     Objective Bounds      |     Work
 Expl Unexpl |  Obj  Depth IntInf | Incumbent    BestBd   Gap | It/Node Time

     0     0  101.01333    0    1  108.24000  101.01333  6.68%     -    0s
H    0     0                     101.7400000  101.01333  0.71%     -    0s
*    0     0               0     101.1400000  101.14000   0.0%     -    0s

Cutting planes:
  Gomory: 1

Explored 0 nodes (3 simplex iterations) in 0.02 seconds
Thread count was 2 (of 2 available processors)

Optimal solution found (tolerance 1.00e-04)
Best objective 1.011400000000e+02, best bound 1.011400000000e+02, gap 0.0%

Gurobi 4.6.1 (mac64) logging started Thu Mar  1 10:55:10 2012

Read MPS format model from file examples/diet.mps
Reading time = 0.00 seconds
examples/diet.cmpl: 4 rows, 8 columns, 31 nonzeros
Optimize a model with 4 rows, 8 columns and 31 nonzeros
Presolve removed 3 rows and 1 columns
Presolve time: 0.00s
Presolved: 1 rows, 7 columns, 7 nonzeros
Variable types: 0 continuous, 7 integer (0 binary)
Found heuristic solution: objective 121.1000000
Found heuristic solution: objective 108.2400000

Root relaxation: objective 1.010133e+02, 1 iterations, 0.00 seconds

    Nodes    |    Current Node    |     Objective Bounds      |     Work
 Expl Unexpl |  Obj  Depth IntInf | Incumbent    BestBd   Gap | It/Node Time

     0     0  101.01333    0    1  108.24000  101.01333  6.68%     -    0s
H    0     0                     101.7400000  101.01333  0.71%     -    0s
*    0     0               0     101.1400000  101.14000   0.0%     -    0s

Cutting planes:
  Gomory: 1

Explored 0 nodes (3 simplex iterations) in 0.00 seconds
Thread count was 2 (of 2 available processors)

Optimal solution found (tolerance 1.00e-04)
Best objective 1.011400000000e+02, best bound 1.011400000000e+02, gap 0.0%

Gurobi 4.6.1 (mac64) logging started Thu Mar  1 10:57:07 2012

Read MPS format model from file examples/diet.mps
Reading time = 0.00 seconds
examples/diet.cmpl: 4 rows, 8 columns, 31 nonzeros
Optimize a model with 4 rows, 8 columns and 31 nonzeros
Presolve removed 3 rows and 1 columns
Presolve time: 0.00s
Presolved: 1 rows, 7 columns, 7 nonzeros
Variable types: 0 continuous, 7 integer (0 binary)
Found heuristic solution: objective 121.1000000
Found heuristic solution: objective 108.2400000

Root relaxation: objective 1.010133e+02, 1 iterations, 0.00 seconds

    Nodes    |    Current Node    |     Objective Bounds      |     Work
 Expl Unexpl |  Obj  Depth IntInf | Incumbent    BestBd   Gap | It/Node Time

     0     0  101.01333    0    1  108.24000  101.01333  6.68%     -    0s
H    0     0                     101.7400000  101.01333  0.71%     -    0s
*    0     0               0     101.1400000  101.14000   0.0%     -    0s

Cutting planes:
  Gomory: 1

Explored 0 nodes (3 simplex iterations) in 0.00 seconds
Thread count was 2 (of 2 available processors)

Optimal solution found (tolerance 1.00e-04)
Best objective 1.011400000000e+02, best bound 1.011400000000e+02, gap 0.0%

Gurobi 4.6.1 (mac64) logging started Thu Mar  1 10:58:51 2012

Read MPS format model from file examples/diet.mps
Reading time = 0.00 seconds
examples/diet.cmpl: 4 rows, 8 columns, 31 nonzeros
Optimize a model with 4 rows, 8 columns and 31 nonzeros
Presolve removed 3 rows and 1 columns
Presolve time: 0.00s
Presolved: 1 rows, 7 columns, 7 nonzeros
Variable types: 0 continuous, 7 integer (0 binary)
Found heuristic solution: objective 121.1000000
Found heuristic solution: objective 108.2400000

Root relaxation: objective 1.010133e+02, 1 iterations, 0.00 seconds

    Nodes    |    Current Node    |     Objective Bounds      |     Work
 Expl Unexpl |  Obj  Depth IntInf | Incumbent    BestBd   Gap | It/Node Time

     0     0  101.01333    0    1  108.24000  101.01333  6.68%     -    0s
H    0     0                     101.7400000  101.01333  0.71%     -    0s
*    0     0               0     101.1400000  101.14000   0.0%     -    0s

Cutting planes:
  Gomory: 1

Explored 0 nodes (3 simplex iterations) in 0.00 seconds
Thread count was 2 (of 2 available processors)

Optimal solution found (tolerance 1.00e-04)
Best objective 1.011400000000e+02, best bound 1.011400000000e+02, gap 0.0%

Gurobi 4.6.1 (mac64) logging started Thu Mar  1 11:02:14 2012

Read MPS format model from file examples/diet.mps
Reading time = 0.00 seconds
examples/diet.cmpl: 4 rows, 8 columns, 31 nonzeros
Optimize a model with 4 rows, 8 columns and 31 nonzeros
Presolve removed 3 rows and 1 columns
Presolve time: 0.00s
Presolved: 1 rows, 7 columns, 7 nonzeros
Variable types: 0 continuous, 7 integer (0 binary)
Found heuristic solution: objective 121.1000000
Found heuristic solution: objective 108.2400000

Root relaxation: objective 1.010133e+02, 1 iterations, 0.00 seconds

    Nodes    |    Current Node    |     Objective Bounds      |     Work
 Expl Unexpl |  Obj  Depth IntInf | Incumbent    BestBd   Gap | It/Node Time

     0     0  101.01333    0    1  108.24000  101.01333  6.68%     -    0s
H    0     0                     101.7400000  101.01333  0.71%     -    0s
*    0     0               0     101.1400000  101.14000   0.0%     -    0s

Cutting planes:
  Gomory: 1

Explored 0 nodes (3 simplex iterations) in 0.00 seconds
Thread count was 2 (of 2 available processors)

Optimal solution found (tolerance 1.00e-04)
Best objective 1.011400000000e+02, best bound 1.011400000000e+02, gap 0.0%

Gurobi 4.6.1 (mac64) logging started Thu Mar  1 11:04:20 2012

Read MPS format model from file examples/diet.mps
Reading time = 0.00 seconds
examples/diet.cmpl: 4 rows, 8 columns, 31 nonzeros
Optimize a model with 4 rows, 8 columns and 31 nonzeros
Presolve removed 3 rows and 1 columns
Presolve time: 0.00s
Presolved: 1 rows, 7 columns, 7 nonzeros
Variable types: 0 continuous, 7 integer (0 binary)
Found heuristic solution: objective 121.1000000
Found heuristic solution: objective 108.2400000

Root relaxation: objective 1.010133e+02, 1 iterations, 0.00 seconds

    Nodes    |    Current Node    |     Objective Bounds      |     Work
 Expl Unexpl |  Obj  Depth IntInf | Incumbent    BestBd   Gap | It/Node Time

     0     0  101.01333    0    1  108.24000  101.01333  6.68%     -    0s
H    0     0                     101.7400000  101.01333  0.71%     -    0s
*    0     0               0     101.1400000  101.14000   0.0%     -    0s

Cutting planes:
  Gomory: 1

Explored 0 nodes (3 simplex iterations) in 0.00 seconds
Thread count was 2 (of 2 available processors)

Optimal solution found (tolerance 1.00e-04)
Best objective 1.011400000000e+02, best bound 1.011400000000e+02, gap 0.0%
Read MPS format model from file examples/diet.mps
Reading time = 0.00 seconds
examples/diet.cmpl: 4 rows, 8 columns, 31 nonzeros
Optimize a model with 4 rows, 8 columns and 31 nonzeros
Presolve removed 3 rows and 1 columns
Presolve time: 0.00s
Presolved: 1 rows, 7 columns, 7 nonzeros
Variable types: 0 continuous, 7 integer (0 binary)
Found heuristic solution: objective 121.1000000
Found heuristic solution: objective 108.2400000

Root relaxation: objective 1.010133e+02, 1 iterations, 0.00 seconds

    Nodes    |    Current Node    |     Objective Bounds      |     Work
 Expl Unexpl |  Obj  Depth IntInf | Incumbent    BestBd   Gap | It/Node Time

     0     0  101.01333    0    1  108.24000  101.01333  6.68%     -    0s
H    0     0                     101.7400000  101.01333  0.71%     -    0s
*    0     0               0     101.1400000  101.14000   0.0%     -    0s

Cutting planes:
  Gomory: 1

Explored 0 nodes (3 simplex iterations) in 0.00 seconds
Thread count was 2 (of 2 available processors)

Optimal solution found (tolerance 1.00e-04)
Best objective 1.011400000000e+02, best bound 1.011400000000e+02, gap 0.0%
Read MPS format model from file examples/diet.mps
Reading time = 0.00 seconds
examples/diet.cmpl: 4 rows, 8 columns, 31 nonzeros
Optimize a model with 4 rows, 8 columns and 31 nonzeros
Presolve removed 3 rows and 1 columns
Presolve time: 0.00s
Presolved: 1 rows, 7 columns, 7 nonzeros
Variable types: 0 continuous, 7 integer (0 binary)
Found heuristic solution: objective 121.1000000
Found heuristic solution: objective 108.2400000

Root relaxation: objective 1.010133e+02, 1 iterations, 0.00 seconds

    Nodes    |    Current Node    |     Objective Bounds      |     Work
 Expl Unexpl |  Obj  Depth IntInf | Incumbent    BestBd   Gap | It/Node Time

     0     0  101.01333    0    1  108.24000  101.01333  6.68%     -    0s
H    0     0                     101.7400000  101.01333  0.71%     -    0s
*    0     0               0     101.1400000  101.14000   0.0%     -    0s

Cutting planes:
  Gomory: 1

Explored 0 nodes (3 simplex iterations) in 0.00 seconds
Thread count was 2 (of 2 available processors)

Optimal solution found (tolerance 1.00e-04)
Best objective 1.011400000000e+02, best bound 1.011400000000e+02, gap 0.0%
Read MPS format model from file examples/diet.mps
Reading time = 0.00 seconds
examples/diet.cmpl: 4 rows, 8 columns, 31 nonzeros
Read MPS format model from file examples/diet.mps
Reading time = 0.00 seconds
examples/diet.cmpl: 4 rows, 8 columns, 31 nonzeros
Read MPS format model from file examples/diet.mps
Reading time = 0.00 seconds
examples/diet.cmpl: 4 rows, 8 columns, 31 nonzeros
Read MPS format model from file examples/diet.mps
Reading time = 0.00 seconds
examples/diet.cmpl: 4 rows, 8 columns, 31 nonzeros
Optimize a model with 4 rows, 8 columns and 31 nonzeros
Presolve removed 3 rows and 1 columns
Presolve time: 0.00s
Presolved: 1 rows, 7 columns, 7 nonzeros
Variable types: 0 continuous, 7 integer (0 binary)
Found heuristic solution: objective 121.1000000
Found heuristic solution: objective 108.2400000

Root relaxation: objective 1.010133e+02, 1 iterations, 0.00 seconds

    Nodes    |    Current Node    |     Objective Bounds      |     Work
 Expl Unexpl |  Obj  Depth IntInf | Incumbent    BestBd   Gap | It/Node Time

     0     0  101.01333    0    1  108.24000  101.01333  6.68%     -    0s
H    0     0                     101.7400000  101.01333  0.71%     -    0s
*    0     0               0     101.1400000  101.14000   0.0%     -    0s

Cutting planes:
  Gomory: 1

Explored 0 nodes (3 simplex iterations) in 0.00 seconds
Thread count was 2 (of 2 available processors)

Optimal solution found (tolerance 1.00e-04)
Best objective 1.011400000000e+02, best bound 1.011400000000e+02, gap 0.0%
Read MPS format model from file examples/diet.mps
Reading time = 0.00 seconds
examples/diet.cmpl: 4 rows, 8 columns, 31 nonzeros
Optimize a model with 4 rows, 8 columns and 31 nonzeros
Presolve removed 3 rows and 1 columns
Presolve time: 0.00s
Presolved: 1 rows, 7 columns, 7 nonzeros
Variable types: 0 continuous, 7 integer (0 binary)
Found heuristic solution: objective 121.1000000
Found heuristic solution: objective 108.2400000

Root relaxation: objective 1.010133e+02, 1 iterations, 0.00 seconds

    Nodes    |    Current Node    |     Objective Bounds      |     Work
 Expl Unexpl |  Obj  Depth IntInf | Incumbent    BestBd   Gap | It/Node Time

     0     0  101.01333    0    1  108.24000  101.01333  6.68%     -    0s
H    0     0                     101.7400000  101.01333  0.71%     -    0s
*    0     0               0     101.1400000  101.14000   0.0%     -    0s

Cutting planes:
  Gomory: 1

Explored 0 nodes (3 simplex iterations) in 0.00 seconds
Thread count was 2 (of 2 available processors)

Optimal solution found (tolerance 1.00e-04)
Best objective 1.011400000000e+02, best bound 1.011400000000e+02, gap 0.0%
Read MPS format model from file examples/diet.mps
Reading time = 0.00 seconds
examples/diet.cmpl: 4 rows, 8 columns, 31 nonzeros
Optimize a model with 4 rows, 8 columns and 31 nonzeros
Presolve removed 3 rows and 1 columns
Presolve time: 0.00s
Presolved: 1 rows, 7 columns, 7 nonzeros
Variable types: 0 continuous, 7 integer (0 binary)
Found heuristic solution: objective 121.1000000
Found heuristic solution: objective 108.2400000

Root relaxation: objective 1.010133e+02, 1 iterations, 0.00 seconds

    Nodes    |    Current Node    |     Objective Bounds      |     Work
 Expl Unexpl |  Obj  Depth IntInf | Incumbent    BestBd   Gap | It/Node Time

     0     0  101.01333    0    1  108.24000  101.01333  6.68%     -    0s
H    0     0                     101.7400000  101.01333  0.71%     -    0s
*    0     0               0     101.1400000  101.14000   0.0%     -    0s

Cutting planes:
  Gomory: 1

Explored 0 nodes (3 simplex iterations) in 0.00 seconds
Thread count was 2 (of 2 available processors)

Optimal solution found (tolerance 1.00e-04)
Best objective 1.011400000000e+02, best bound 1.011400000000e+02, gap 0.0%
